20
587 233 220
91 54 45
105 77 72
79 78 48
109 76 59
48 37 30
44 37 27
79 76 54
116 78 20
101 71 49
102 100 49
105 43 22
107 84 61
110 71 23
75 39 34
73 47 32
60 60 25
43 33 31
100 74 57
93 47 41
45 33 28
thpack7_49